seed= 25072018 ;
N= 100 ;
M= 3 ;
F= 5 ;
K= 13 ;
T= 306 ;

p=[ 16 16 16 16 16 16 16 16 16 16 16 16 16 16 16 16 16 16 16 16 10 10 10 10 10 10 10 10 10 10 10 10 10 10 10 10 10 10 10 10 10 10 10 10 10 10 10 10 10 10 10 10 10 10 10 10 10 10 10 10 10 10 10 10 10 10 10 10 10 10 10 10 10 10 10 10 10 10 10 10 16 16 16 16 16 16 16 16 16 16 16 16 16 16 16 16 16 16 16 16 ];
r=[ 23 22 3 29 45 23 31 14 37 1 0 3 20 25 10 0 14 37 18 43 10 8 30 8 27 25 34 13 7 11 36 47 20 37 8 2 21 11 3 12 16 19 11 2 41 32 4 40 7 40 4 4 14 1 30 43 34 47 42 33 26 7 10 12 9 14 22 16 37 25 16 19 3 45 47 42 8 32 7 41 25 37 30 38 27 19 24 6 34 30 26 29 21 11 42 33 7 15 12 7 ];
d=[ 44 52 29 10 34 59 48 45 30 41 47 7 56 20 50 44 50 74 62 13 9 38 76 2 49 65 35 60 35 56 7 36 21 83 26 29 64 24 1 39 48 61 22 7 52 18 47 53 52 20 12 49 11 9 58 46 21 67 56 23 44 46 21 48 34 53 25 38 57 3 34 40 14 26 8 70 39 13 48 69 43 34 19 28 39 6 40 4 24 72 8 71 62 23 49 48 31 29 24 39 ];
s=[ 8 6 7 4 8 2 5 3 6 5 4 8 3 4 4 7 4 3 8 3 5 8 2 8 4 7 3 4 4 6 4 8 4 2 8 3 6 6 7 4 6 4 8 5 3 8 8 6 8 6 3 5 2 5 4 3 3 8 5 8 2 7 6 5 6 4 2 2 8 5 7 4 2 3 3 6 7 3 3 7 4 7 6 8 5 8 7 8 2 8 7 2 4 8 4 8 3 3 2 2 ];
w=[ 4 1 1 2 4 5 4 1 2 4 4 2 4 1 1 5 5 1 1 5 3 5 2 2 3 2 1 3 2 5 1 3 1 1 4 3 4 5 3 4 3 2 4 1 2 2 4 5 5 1 3 3 3 1 2 3 4 3 1 1 4 2 5 3 4 5 4 2 2 4 4 4 3 3 5 3 1 2 5 2 5 3 1 2 1 4 4 2 3 1 1 3 4 4 1 2 1 4 2 2 ];
f=[ 1 1 1 1 1 1 1 1 1 1 1 1 1 1 1 1 1 1 1 1 2 2 2 2 2 2 2 2 2 2 2 2 2 2 2 2 2 2 2 2 3 3 3 3 3 3 3 3 3 3 3 3 3 3 3 3 3 3 3 3 4 4 4 4 4 4 4 4 4 4 4 4 4 4 4 4 4 4 4 4 5 5 5 5 5 5 5 5 5 5 5 5 5 5 5 5 5 5 5 5 ];

e1=[ 10 10 10 10 10 10 10 10 10 10 10 10 10 10 10 10 10 10 10 10 10 10 10 10 10 10 10 10 10 10 10 10 10 10 10 10 10 10 10 10 10 10 10 10 10 10 10 10 10 10 10 10 10 10 10 10 10 10 10 10 10 10 10 10 10 10 10 10 10 10 10 10 10 10 10 10 10 10 10 10 10 10 10 10 10 10 10 10 10 10 10 10 10 10 10 10 10 10 10 10 10 10 10 10 10 10 10 10 10 10 10 10 10 10 10 10 10 10 10 10 10 10 10 10 10 10 10 10 10 10 10 10 10 10 10 10 10 10 10 10 10 10 10 10 10 10 10 10 10 10 10 10 10 8 8 8 8 8 8 8 8 8 8 8 8 8 8 8 8 8 8 8 8 8 8 8 8 8 8 8 8 8 8 8 8 8 8 8 8 8 8 8 8 8 8 8 8 8 8 8 8 8 8 8 8 8 8 8 8 8 8 8 8 8 8 8 8 8 8 8 8 8 8 8 8 8 8 8 8 8 8 8 8 8 8 8 8 8 8 8 8 8 8 8 8 8 8 8 8 8 8 8 8 8 8 8 8 8 8 8 8 8 8 8 8 8 8 8 8 8 8 8 8 8 8 8 8 8 8 8 8 8 8 8 8 8 8 8 8 8 8 8 8 8 8 8 8 8 8 8 8 8 8 8 8 8 ];
e2=[ 10 10 10 10 10 10 10 10 10 10 10 10 10 10 10 10 10 10 10 10 10 10 10 10 10 10 10 10 10 10 10 10 10 10 10 10 10 10 10 10 10 10 10 10 10 10 10 10 10 10 10 10 10 10 10 10 10 10 10 10 10 10 10 10 10 10 10 10 10 10 10 10 10 10 10 10 10 10 10 10 10 10 10 10 10 10 10 10 10 10 10 10 10 10 10 10 10 10 10 10 10 10 9 9 9 9 9 9 9 9 9 9 9 9 9 9 9 9 9 9 9 9 9 9 9 9 9 9 9 9 9 9 9 9 9 9 9 9 9 9 9 9 9 9 9 9 9 9 9 9 9 9 9 8 8 8 8 8 8 8 8 8 8 8 8 8 8 8 8 8 8 8 8 8 8 8 8 8 8 8 8 8 8 8 8 8 8 8 8 8 8 8 8 8 8 8 8 8 8 8 8 8 8 8 8 8 8 8 8 8 8 8 8 8 8 8 8 8 8 8 8 8 8 8 8 8 8 8 8 8 8 8 8 8 8 8 8 8 8 8 8 8 8 8 8 8 8 8 8 8 8 8 8 8 8 9 9 9 9 9 9 9 9 9 9 9 9 9 9 9 9 9 9 9 9 9 9 9 9 9 9 9 9 9 9 9 9 9 9 9 9 9 9 9 9 9 9 9 9 9 9 9 9 9 9 9 ];